************************************************************************
file with basedata            : md366_.bas
initial value random generator: 620182390
************************************************************************
projects                      :  1
jobs (incl. supersource/sink ):  22
horizon                       :  161
RESOURCES
  - renewable                 :  2   R
  - nonrenewable              :  2   N
  - doubly constrained        :  0   D
************************************************************************
PROJECT INFORMATION:
pronr.  #jobs rel.date duedate tardcost  MPM-Time
    1     20      0       26       12       26
************************************************************************
PRECEDENCE RELATIONS:
jobnr.    #modes  #successors   successors
   1        1          3           2   3   4
   2        3          3           5   6   7
   3        3          2          19  20
   4        3          3           8   9  13
   5        3          3           9  10  11
   6        3          3          14  15  16
   7        3          1          13
   8        3          1          19
   9        3          3          14  16  21
  10        3          2          12  15
  11        3          1          17
  12        3          2          14  16
  13        3          3          15  17  20
  14        3          2          18  20
  15        3          1          21
  16        3          1          18
  17        3          2          18  21
  18        3          1          19
  19        3          1          22
  20        3          1          22
  21        3          1          22
  22        1          0        
************************************************************************
REQUESTS/DURATIONS:
jobnr. mode duration  R 1  R 2  N 1  N 2
------------------------------------------------------------------------
  1      1     0       0    0    0    0
  2      1     2       9    9    8    6
         2     5       6    9    7    5
         3     6       1    8    2    4
  3      1     1       6    9    3    8
         2     2       6    8    3    8
         3     4       2    5    3    8
  4      1     1       8    8    3    7
         2     6       6    5    3    5
         3     9       1    4    3    4
  5      1     2      10   10    7    7
         2     5      10    7    6    7
         3     7       9    3    5    7
  6      1     1       2    7    2    4
         2     5       2    5    2    3
         3     7       2    3    1    3
  7      1     4       7    8    8    5
         2     8       7    6    6    5
         3    10       6    5    5    2
  8      1     6       9    5    9    4
         2     9       6    4    6    4
         3    10       1    1    5    4
  9      1     1       3    7    5    5
         2     9       3    6    5    4
         3    10       3    4    4    4
 10      1     5       7    8    7    9
         2     8       7    6    5    8
         3    10       4    2    2    7
 11      1     3       8    3    3   10
         2     7       5    2    3    7
         3     9       4    2    2    4
 12      1     5       3    7    3    7
         2     6       2    7    2    5
         3    10       2    5    2    4
 13      1     3      10    8    5    5
         2     6       5    6    4    3
         3     8       3    4    4    3
 14      1     2       3   10    6    7
         2     4       3   10    6    6
         3     6       2    9    5    5
 15      1     5       7   10    8    7
         2     7       5    8    7    5
         3    10       5    8    6    5
 16      1     1       7    6    6    9
         2     2       5    5    5    8
         3    10       4    5    3    5
 17      1     6       5    8    9    9
         2     7       5    5    8    8
         3     8       4    1    8    8
 18      1     2       3    4    4    9
         2     2       3    6    5    8
         3     5       2    3    4    4
 19      1     8       4    4    6    8
         2     8       3    7    4    7
         3     8       5    7    5    6
 20      1     3       7    7    6    5
         2     6       6    5    6    5
         3     8       1    2    4    4
 21      1     2       8    5    5    6
         2     3       8    2    3    6
         3     6       8    1    3    5
 22      1     0       0    0    0    0
************************************************************************
RESOURCEAVAILABILITIES:
  R 1  R 2  N 1  N 2
   22   20   95  117
************************************************************************
MAXIMAL LAGS:
from  to  type  delay
    1   12   ES      0
    1    2   ES      0
    2   12   ES      0
    1    3   ES      0
    3   12   ES      0
    1    4   ES      0
    4   12   ES      0
    1    5   ES      0
    5   12   ES      0
    1    6   ES      0
    6   12   ES      0
    1    7   ES      0
    7   12   ES      0
    1    8   ES      0
    8   12   ES      0
    1    9   ES      0
    9   12   ES      0
    1   10   ES      0
   10   12   ES      0
    1   11   ES      0
   11   12   ES      0
    1   12   ES      0
    2    5   SS      9
    2    5   SE      6
    2    5   ES     12
    2    5   EE      5
    2    6   SS      3
    2    6   SE      8
    2    6   ES     10
    2    6   EE      1
    2    7   SS     10
    2    7   SE      0
    2    7   ES      3
    2    7   EE     -3
    3   19   SS    -11
    3   19   SE      5
    3   19   ES     10
    3   19   EE      3
    3   20   SS      3
    3   20   SE     -8
    3   20   ES    -10
    3   20   EE    -11
    4    8   SS      2
    4    8   SE      8
    4    8   ES     -2
    4    8   EE     -7
    4    9   SS     -3
    4    9   SE     10
    4    9   ES    -11
    4    9   EE    -12
    4   13   SS     -5
    4   13   SE     -6
    4   13   ES     10
    4   13   EE    -11
    5    9   SS     -1
    5    9   SE    -10
    5    9   ES    -12
    5    9   EE     10
    5   10   SS      9
    5   10   SE     12
    5   10   ES      7
    5   10   EE     10
    5   11   SS      3
    5   11   SE     -8
    5   11   ES     -3
    5   11   EE      2
    6   14   SS     -8
    6   14   SE     -1
    6   14   ES     -4
    6   14   EE     -7
    6   15   SS      1
    6   15   SE     -1
    6   15   ES     -3
    6   15   EE    -10
    6   16   SS      1
    6   16   SE     11
    6   16   ES      9
    6   16   EE      5
    7   13   SS      6
    7   13   SE      9
    7   13   ES     -6
    7   13   EE      6
    8   19   SS     -7
    8   19   SE      3
    8   19   ES      1
    8   19   EE     12
    9   14   SS     11
    9   14   SE     12
    9   14   ES     10
    9   14   EE     10
    9   16   SS     -5
    9   16   SE      6
    9   16   ES      5
    9   16   EE     -2
    9   21   SS     10
    9   21   SE     -7
    9   21   ES     -5
    9   21   EE      5
   10   15   SS      9
   10   15   SE     -9
   10   15   ES      5
   10   15   EE     -7
   11   17   SS      4
   11   17   SE      6
   11   17   ES     -6
   11   17   EE      0
   12   14   SS      8
   12   14   SE     -6
   12   14   ES      9
   12   14   EE      8
   12   16   SS     -7
   12   16   SE     12
   12   16   ES      2
   12   16   EE      5
   13   15   SS      8
   13   15   SE      1
   13   15   ES      4
   13   15   EE    -12
   13   17   SS      3
   13   17   SE     11
   13   17   ES    -11
   13   17   EE     -4
   13   20   SS     -7
   13   20   SE      8
   13   20   ES     -5
   13   20   EE     -1
   14   18   SS      2
   14   18   SE     12
   14   18   ES      8
   14   18   EE     -5
   14   20   SS    -10
   14   20   SE      4
   14   20   ES      7
   14   20   EE      7
   15   21   SS     -1
   15   21   SE      6
   15   21   ES     -5
   15   21   EE    -10
   16   18   SS    -10
   16   18   SE     11
   16   18   ES      1
   16   18   EE      9
   17   18   SS      6
   17   18   SE      6
   17   18   ES     -7
   17   18   EE      9
   17   21   SS    -10
   17   21   SE      8
   17   21   ES     -6
   17   21   EE     -2
   18   19   SS     -5
   18   19   SE     -3
   18   19   ES     10
   18   19   EE      2
   19   22   SS     11
   19   22   SE    -11
   19   22   ES     -1
   19   22   EE    -12
   20   22   SS      3
   20   22   SE      8
   20   22   ES    -12
   20   22   EE      3
   21   22   SS      3
   21   22   SE     -1
   21   22   ES    -12
   21   22   EE     11
************************************************************************
